c Output_time 26.03.2020 18:15:18_+0100 1585242918026107612
c ** Program information **
c program_name                          "QBRG_debug"
c version                               "0.3.20"
c date                                  "25.3.2020"
c gid_id                                "673970833836058123f633335630c185360d632e"
c author                                "Oliver Kullmann"
c url                                   "https://github.com/OKullmann/oklibrary/blob/master/Satisfiability/Transformers/Generators/Random/QBRG.cpp"
c ** Machine information **
c machine_name                          "chyna-Lenovo-G50-70"
c bogomips                              3791.08
c ** Compilation information **
c compiler_version                      "g++ 7.5.0"
c compilation_date                      "Mar_26_2020 11:16:30"
c compilation_options                   "--std=c++17 -pedantic -fmax-errors=5 -Wall -Wextra -g -D_GLIBCXX_DEBUG"
c NDEBUG                                0
c OPTIMIZE                              0
c ** Parameters **
c command-line                          "./QBRG_debug" "a40 e40 a40 40" "383*1,1|2-2,1|3-3,1|4-4,1" "" "1,t" ""
c output                                "QuBlRaGe_160_383_1585242917992873683.qdimacs"
c options                               "filtered,renamed"
c num_quantifier_blocks                 4
c  quantifier_blocks                    1:a1-40 2:e41-80 3:a81-120 4:e121-160
c num_clause-blocks                     1
c  clause-blocks                        383 * {1-40,1,1/2} | {41-80,1,1/2} | {81-120,1,1/2} | {121-160,1,1/2}
c num_e-seeds                           37+2=39
c  e-seeds                              1 0 1 0 5 160 2 40 0 40 1 40 0 40 1 383 4 1 1 1 1 2 2 2 1 1 2 3 3 1 1 2 4 4 1 1 2 1 1585242917992872928
p cnf 160 383
a 1 2 3 4 5 6 7 8 9 10 11 12 13 14 15 16 17 18 19 20 21 22 23 24 25 26 27 28 29 30 31 32 33 34 35 36 37 38 39 40 0
e 41 42 43 44 45 46 47 48 49 50 51 52 53 54 55 56 57 58 59 60 61 62 63 64 65 66 67 68 69 70 71 72 73 74 75 76 77 78 79 80 0
a 81 82 83 84 85 86 87 88 89 90 91 92 93 94 95 96 97 98 99 100 101 102 103 104 105 106 107 108 109 110 111 112 113 114 115 116 117 118 119 120 0
e 121 122 123 124 125 126 127 128 129 130 131 132 133 134 135 136 137 138 139 140 141 142 143 144 145 146 147 148 149 150 151 152 153 154 155 156 157 158 159 160 0
-11 44 -113 -121 0
11 66 -115 -121 0
-17 -42 87 121 0
-5 -70 99 121 0
-24 46 102 121 0
24 -68 102 121 0
9 77 115 -122 0
-3 43 117 -122 0
2 -68 -118 -122 0
7 64 119 -122 0
-4 -43 -96 122 0
18 64 -103 122 0
29 57 111 122 0
19 41 -112 122 0
-21 -65 117 122 0
-37 72 -81 -123 0
3 -68 -86 -123 0
-37 -41 86 -123 0
-36 -76 -88 -123 0
15 -74 99 -123 0
39 -74 -101 -123 0
-1 69 -106 -123 0
21 44 -85 123 0
3 -46 -101 123 0
-29 60 105 123 0
29 -75 119 123 0
11 63 -93 -124 0
-10 54 96 -124 0
5 75 99 -124 0
-7 67 -100 -124 0
-19 51 -107 -124 0
-4 55 117 -124 0
27 61 117 -124 0
14 -49 -84 124 0
-23 71 -84 124 0
28 79 103 124 0
32 77 -105 124 0
-22 60 -114 124 0
3 -45 -89 -125 0
-14 69 -89 -125 0
29 43 -92 -125 0
-37 67 -104 -125 0
4 -59 -114 -125 0
7 60 -120 -125 0
-14 -72 -86 125 0
33 78 -99 125 0
40 -51 103 125 0
12 60 -85 -126 0
-21 57 100 -126 0
-12 58 -101 -126 0
11 -61 -111 -126 0
31 48 113 -126 0
-34 -63 118 -126 0
19 77 -95 126 0
26 -49 100 126 0
-33 60 -102 126 0
-35 60 -103 126 0
9 -77 -111 126 0
19 49 -113 126 0
-39 -70 -115 126 0
25 -48 -120 126 0
-5 -49 -86 -127 0
5 -60 -94 -127 0
33 -58 101 -127 0
-7 -60 -103 -127 0
29 76 -119 -127 0
27 73 83 127 0
-5 -77 84 127 0
8 59 -87 127 0
20 60 91 127 0
-22 -45 -107 127 0
-14 73 108 127 0
16 -55 117 127 0
-3 58 -90 -128 0
18 60 -91 -128 0
2 80 93 -128 0
-29 -50 110 -128 0
16 -41 108 128 0
-10 -77 108 128 0
-8 73 81 -129 0
6 -75 -87 -129 0
9 58 -90 -129 0
21 57 -102 -129 0
-38 -60 109 -129 0
-33 60 120 -129 0
20 49 -83 129 0
-38 -79 83 129 0
3 75 95 129 0
-31 60 -105 129 0
-34 56 -118 129 0
-30 42 -82 -130 0
-26 49 91 -130 0
-35 -49 -93 -130 0
40 73 -96 -130 0
-16 49 98 -130 0
7 46 -103 -130 0
9 -68 103 -130 0
16 -79 -107 -130 0
-23 -43 108 -130 0
8 42 111 -130 0
5 43 -114 -130 0
-11 59 120 -130 0
-6 -80 -97 130 0
-17 80 103 130 0
19 -42 -108 130 0
37 41 -110 130 0
24 62 -116 130 0
-12 -53 -117 130 0
-5 53 94 -131 0
36 77 -89 131 0
12 69 94 131 0
32 45 -109 131 0
-34 -62 -112 131 0
1 45 120 131 0
25 52 82 -132 0
-32 55 90 -132 0
4 43 98 -132 0
23 68 -101 -132 0
-7 75 106 -132 0
-3 67 -110 -132 0
-13 48 -94 132 0
10 -66 94 132 0
-20 -63 -104 132 0
-12 -54 -82 -133 0
-34 59 87 -133 0
15 58 96 -133 0
-21 79 -98 -133 0
-4 -43 107 -133 0
8 -44 109 -133 0
38 69 -115 -133 0
-5 49 -119 -133 0
16 -68 85 133 0
33 -79 -93 133 0
24 -49 -108 133 0
17 -62 108 133 0
4 49 109 133 0
-17 80 -112 133 0
-39 43 97 -134 0
31 -64 108 -134 0
-7 -72 -112 -134 0
32 76 -119 -134 0
-13 42 -94 134 0
-7 -74 -94 134 0
2 -64 -117 134 0
7 -69 98 -135 0
2 55 113 -135 0
19 76 117 -135 0
-5 -78 -116 135 0
36 65 84 -136 0
-1 -45 -88 -136 0
-36 79 -95 -136 0
2 75 95 -136 0
-23 77 119 -136 0
-16 64 -88 136 0
-39 -56 -90 136 0
8 73 -102 136 0
-22 60 -107 136 0
-31 -72 -107 136 0
-20 -43 -105 -137 0
-22 61 114 -137 0
-10 -51 104 137 0
6 -59 -108 137 0
-39 -61 -114 137 0
-1 -80 -96 -138 0
-7 67 -84 138 0
19 -56 92 138 0
29 -64 -111 138 0
-24 -72 -111 138 0
-23 -76 -84 -139 0
1 -78 -87 -139 0
9 59 -112 -139 0
-33 -53 100 139 0
-9 48 -103 139 0
-7 -68 105 139 0
33 44 -110 139 0
12 -78 -83 -140 0
9 -71 96 -140 0
-7 -68 118 -140 0
-15 78 -120 -140 0
19 45 83 140 0
17 -65 -108 140 0
23 63 -113 140 0
35 -74 -119 140 0
-1 76 91 -141 0
-18 52 -92 -141 0
-34 -61 97 -141 0
-1 71 97 -141 0
5 79 98 -141 0
-37 68 -118 -141 0
-32 71 119 -141 0
-5 52 -96 141 0
-15 57 99 141 0
-1 -69 99 141 0
-10 75 119 141 0
-10 -49 89 -142 0
30 -67 -105 -142 0
29 -50 106 -142 0
22 55 117 -142 0
-29 68 -83 142 0
37 -67 91 142 0
-3 -76 97 142 0
39 51 103 142 0
-25 74 110 142 0
23 65 -116 142 0
14 62 -120 142 0
35 62 -84 -143 0
31 64 -95 -143 0
31 67 -106 -143 0
-28 -47 109 -143 0
-28 -69 110 -143 0
-39 60 118 -143 0
35 -79 114 143 0
40 -68 115 143 0
21 -53 -119 143 0
-38 77 -82 -144 0
-14 61 82 -144 0
26 -68 86 -144 0
-12 -74 -91 -144 0
10 -54 92 -144 0
-33 71 -98 -144 0
-22 -68 -102 -144 0
22 -65 -113 -144 0
-26 58 92 144 0
-11 -45 113 144 0
6 -74 113 144 0
-27 -64 115 144 0
34 -41 -93 -145 0
-20 47 105 -145 0
-17 -58 -106 -145 0
-34 -73 -106 -145 0
10 46 111 -145 0
-6 66 114 -145 0
-18 61 -115 -145 0
9 44 -86 145 0
1 -59 -94 145 0
14 -46 98 145 0
26 60 -106 145 0
18 69 -84 -146 0
-32 54 -92 -146 0
-28 -69 -93 -146 0
8 70 -96 -146 0
39 63 -100 -146 0
14 77 105 -146 0
11 -45 -116 -146 0
2 72 -99 146 0
3 75 -101 146 0
-13 69 118 146 0
15 74 -120 146 0
36 -78 88 -147 0
17 65 -91 -147 0
21 -48 -93 -147 0
20 53 105 -147 0
1 -73 113 -147 0
-20 -44 114 -147 0
-11 56 115 -147 0
1 41 -118 -147 0
34 61 91 147 0
33 59 98 147 0
-8 68 105 147 0
17 -68 116 147 0
8 -59 119 147 0
4 59 -86 -148 0
-9 -70 -91 -148 0
21 79 100 -148 0
-19 64 102 -148 0
5 -65 94 148 0
19 69 95 148 0
-40 -59 -100 148 0
-17 -74 -107 148 0
19 50 112 148 0
-3 -79 115 148 0
33 -65 87 -149 0
-3 -56 92 -149 0
37 69 -100 -149 0
1 -50 101 -149 0
-32 55 -103 -149 0
-34 -52 -109 -149 0
-1 76 -118 -149 0
-4 -78 -83 149 0
-1 46 -90 149 0
-22 56 -90 149 0
-37 69 99 149 0
24 -72 -102 149 0
-3 -75 -105 149 0
40 -49 -113 149 0
26 64 86 -150 0
-37 -51 -88 -150 0
-37 -68 100 -150 0
1 44 -102 -150 0
-37 54 -103 -150 0
17 -67 112 -150 0
-25 -63 -117 -150 0
-30 60 -85 150 0
3 73 -108 150 0
16 71 -111 150 0
-29 73 -112 150 0
-7 76 -117 150 0
27 -56 -93 -151 0
-33 -54 -108 -151 0
6 77 -116 -151 0
-12 48 83 151 0
-1 64 -92 151 0
-20 -64 103 151 0
5 -65 -107 151 0
-38 -47 -115 151 0
15 55 -87 -152 0
10 -55 92 -152 0
-31 75 -116 -152 0
40 -76 -103 152 0
24 65 108 152 0
-5 47 -109 152 0
-38 -42 109 152 0
10 -47 95 -153 0
-20 -75 -96 -153 0
-7 -72 -99 -153 0
38 -78 -101 -153 0
17 47 104 -153 0
5 -46 110 -153 0
-3 76 -117 -153 0
-29 -57 -88 153 0
-10 -70 90 153 0
29 74 93 153 0
-7 -50 112 153 0
40 63 -117 153 0
37 73 89 -154 0
-32 63 91 -154 0
-5 42 -92 -154 0
-5 -51 -93 -154 0
5 60 -93 -154 0
38 -50 -101 -154 0
2 -60 -117 -154 0
-22 -63 81 154 0
-18 -71 84 154 0
37 48 97 154 0
39 -77 -99 154 0
-18 63 101 154 0
-13 -55 112 154 0
2 46 83 -155 0
39 54 -85 -155 0
27 -68 -95 155 0
28 75 -100 155 0
32 -74 -106 155 0
-6 73 112 155 0
3 58 -87 -156 0
3 -69 -101 -156 0
32 -56 -107 -156 0
3 -55 -105 156 0
-16 79 -112 156 0
-19 -62 117 156 0
-33 60 -81 -157 0
-10 52 -84 -157 0
3 74 84 -157 0
-11 -79 85 -157 0
-6 49 94 -157 0
-24 49 -97 -157 0
21 79 114 -157 0
18 -70 -93 157 0
9 -61 -104 157 0
-38 78 109 157 0
7 55 110 157 0
35 51 102 -158 0
9 -70 115 -158 0
-27 79 115 158 0
-9 -65 -86 -159 0
-20 -75 87 -159 0
-11 77 -103 -159 0
-12 -79 -110 -159 0
28 -63 -96 159 0
-29 63 99 159 0
-25 -78 -109 159 0
-36 80 -81 -160 0
-23 -71 -91 -160 0
28 -43 -101 -160 0
-10 52 120 -160 0
2 -78 -83 160 0
-20 -55 -87 160 0
7 57 95 160 0
2 66 -100 160 0
38 -74 102 160 0
14 -47 -107 160 0
-38 42 107 160 0
-40 -67 108 160 0
-25 -72 119 160 0
